c description: Perfect Matching Principle on 
c generator: CNFgen (0.9.0)
c copyright: (C) 2012-2020 Massimo Lauria <massimo.lauria@uniroma1.it>
c url: https://massimolauria.net/cnfgen
c
p cnf 40 122
-1 -2 0
-1 -3 0
-1 -4 0
-2 -3 0
-2 -4 0
-3 -4 0
1 2 3 4 0
0
0
-1 -5 0
-1 -6 0
-5 -6 0
1 5 6 0
7 0
8 0
9 0
0
10 0
11 0
-12 -13 0
12 13 0
14 0
-12 -15 0
-12 -16 0
-12 -17 0
-15 -16 0
-15 -17 0
-16 -17 0
12 15 16 17 0
-2 -18 0
2 18 0
-8 -9 0
-8 -19 0
-8 -20 0
-8 -21 0
-9 -19 0
-9 -20 0
-9 -21 0
-19 -20 0
-19 -21 0
-20 -21 0
8 9 19 20 21 0
22 0
23 0
0
-5 -24 0
-5 -25 0
-24 -25 0
5 24 25 0
-26 -27 0
26 27 0
28 0
-13 -29 0
13 29 0
-15 -30 0
-15 -31 0
-30 -31 0
15 30 31 0
0
-16 -32 0
16 32 0
-30 -33 0
-30 -34 0
-30 -35 0
-33 -34 0
-33 -35 0
-34 -35 0
30 33 34 35 0
-17 -22 0
17 22 0
-10 -36 0
-10 -37 0
-36 -37 0
10 36 37 0
-31 -36 0
-31 -38 0
-36 -38 0
31 36 38 0
0
-18 -26 0
18 26 0
-7 -27 0
-7 -28 0
-7 -32 0
-7 -37 0
-7 -38 0
-27 -28 0
-27 -32 0
-27 -37 0
-27 -38 0
-28 -32 0
-28 -37 0
-28 -38 0
-32 -37 0
-32 -38 0
-37 -38 0
7 27 28 32 37 38 0
-11 -19 0
11 19 0
6 0
-24 -29 0
24 29 0
-25 -33 0
-25 -39 0
-33 -39 0
25 33 39 0
-20 -23 0
-20 -34 0
-20 -39 0
-23 -34 0
-23 -39 0
-34 -39 0
20 23 34 39 0
-3 -21 0
-3 -40 0
-21 -40 0
3 21 40 0
35 0
-4 -14 0
-4 -40 0
-14 -40 0
4 14 40 0